W=8;
H=4;

MAX_TIME=26;
MAX_TRACKS=16;

TARGET=(4,8);

N_TRAINS=2;
TRAINS=[(3,3,LEFT),(3,5,RIGHT)];

N_INIT_POS=13;
INIT_POS=[
(1,2,STRAIGHT_RL),
(1,4,DSWITCH_R_L_D),
(2,1,STRAIGHT_TD),
(2,5,EMPTY),
(2,7,STRAIGHT_TD),
(3,3,STRAIGHT_RL),
(3,5,STRAIGHT_RL),
(4,3,EMPTY),
(4,5,STRAIGHT_RL),
(4,6,STRAIGHT_RL),
(4,7,STRAIGHT_RL),
(4,8,STRAIGHT_RL),
(2,2,EMPTY),
];
N_TUNNELS=0;
TUNNEL_PAIRS=[];

N_GATES=1;
GATES=[
(4,5,1,false),
];
N_ACTIVATIONS=2;
ACTIVATIONS=[
(2,1,1),
(2,7,1),
];

N_DSWITCHES=1;
DSWITCHES=[
(1,4,1),
];
N_STATIONS=1;
STATIONS=[
  (1,2,1),
];
